c *********************************
c * Circuit generated by BenCGen
c *
c * CarrySaveAdder_98_98_98_98_99
c *
c * Ports with 1 gate(s): 2
c * Ports with 2 gate(s): 491
c * Total gates: 493
c *********************************
p cnf 787 1673
1 493 0
-1 -493 0
1 -492 0
493 -492 0
-1 -493 492 0
492 -393 0
-492 393 0
1 99 -494 0
-1 99 494 0
1 -99 494 0
-1 -99 -494 0
494 197 -295 0
-494 197 295 0
494 -197 295 0
-494 -197 -295 0
197 -495 0
494 -495 0
-197 -494 495 0
99 -496 0
1 -496 0
-99 -1 496 0
-495 394 0
-496 394 0
495 496 -394 0
2 100 -497 0
-2 100 497 0
2 -100 497 0
-2 -100 -497 0
497 198 -296 0
-497 198 296 0
497 -198 296 0
-497 -198 -296 0
198 -498 0
497 -498 0
-198 -497 498 0
100 -499 0
2 -499 0
-100 -2 499 0
-498 395 0
-499 395 0
498 499 -395 0
3 101 -500 0
-3 101 500 0
3 -101 500 0
-3 -101 -500 0
500 199 -297 0
-500 199 297 0
500 -199 297 0
-500 -199 -297 0
199 -501 0
500 -501 0
-199 -500 501 0
101 -502 0
3 -502 0
-101 -3 502 0
-501 396 0
-502 396 0
501 502 -396 0
4 102 -503 0
-4 102 503 0
4 -102 503 0
-4 -102 -503 0
503 200 -298 0
-503 200 298 0
503 -200 298 0
-503 -200 -298 0
200 -504 0
503 -504 0
-200 -503 504 0
102 -505 0
4 -505 0
-102 -4 505 0
-504 397 0
-505 397 0
504 505 -397 0
5 103 -506 0
-5 103 506 0
5 -103 506 0
-5 -103 -506 0
506 201 -299 0
-506 201 299 0
506 -201 299 0
-506 -201 -299 0
201 -507 0
506 -507 0
-201 -506 507 0
103 -508 0
5 -508 0
-103 -5 508 0
-507 398 0
-508 398 0
507 508 -398 0
6 104 -509 0
-6 104 509 0
6 -104 509 0
-6 -104 -509 0
509 202 -300 0
-509 202 300 0
509 -202 300 0
-509 -202 -300 0
202 -510 0
509 -510 0
-202 -509 510 0
104 -511 0
6 -511 0
-104 -6 511 0
-510 399 0
-511 399 0
510 511 -399 0
7 105 -512 0
-7 105 512 0
7 -105 512 0
-7 -105 -512 0
512 203 -301 0
-512 203 301 0
512 -203 301 0
-512 -203 -301 0
203 -513 0
512 -513 0
-203 -512 513 0
105 -514 0
7 -514 0
-105 -7 514 0
-513 400 0
-514 400 0
513 514 -400 0
8 106 -515 0
-8 106 515 0
8 -106 515 0
-8 -106 -515 0
515 204 -302 0
-515 204 302 0
515 -204 302 0
-515 -204 -302 0
204 -516 0
515 -516 0
-204 -515 516 0
106 -517 0
8 -517 0
-106 -8 517 0
-516 401 0
-517 401 0
516 517 -401 0
9 107 -518 0
-9 107 518 0
9 -107 518 0
-9 -107 -518 0
518 205 -303 0
-518 205 303 0
518 -205 303 0
-518 -205 -303 0
205 -519 0
518 -519 0
-205 -518 519 0
107 -520 0
9 -520 0
-107 -9 520 0
-519 402 0
-520 402 0
519 520 -402 0
10 108 -521 0
-10 108 521 0
10 -108 521 0
-10 -108 -521 0
521 206 -304 0
-521 206 304 0
521 -206 304 0
-521 -206 -304 0
206 -522 0
521 -522 0
-206 -521 522 0
108 -523 0
10 -523 0
-108 -10 523 0
-522 403 0
-523 403 0
522 523 -403 0
11 109 -524 0
-11 109 524 0
11 -109 524 0
-11 -109 -524 0
524 207 -305 0
-524 207 305 0
524 -207 305 0
-524 -207 -305 0
207 -525 0
524 -525 0
-207 -524 525 0
109 -526 0
11 -526 0
-109 -11 526 0
-525 404 0
-526 404 0
525 526 -404 0
12 110 -527 0
-12 110 527 0
12 -110 527 0
-12 -110 -527 0
527 208 -306 0
-527 208 306 0
527 -208 306 0
-527 -208 -306 0
208 -528 0
527 -528 0
-208 -527 528 0
110 -529 0
12 -529 0
-110 -12 529 0
-528 405 0
-529 405 0
528 529 -405 0
13 111 -530 0
-13 111 530 0
13 -111 530 0
-13 -111 -530 0
530 209 -307 0
-530 209 307 0
530 -209 307 0
-530 -209 -307 0
209 -531 0
530 -531 0
-209 -530 531 0
111 -532 0
13 -532 0
-111 -13 532 0
-531 406 0
-532 406 0
531 532 -406 0
14 112 -533 0
-14 112 533 0
14 -112 533 0
-14 -112 -533 0
533 210 -308 0
-533 210 308 0
533 -210 308 0
-533 -210 -308 0
210 -534 0
533 -534 0
-210 -533 534 0
112 -535 0
14 -535 0
-112 -14 535 0
-534 407 0
-535 407 0
534 535 -407 0
15 113 -536 0
-15 113 536 0
15 -113 536 0
-15 -113 -536 0
536 211 -309 0
-536 211 309 0
536 -211 309 0
-536 -211 -309 0
211 -537 0
536 -537 0
-211 -536 537 0
113 -538 0
15 -538 0
-113 -15 538 0
-537 408 0
-538 408 0
537 538 -408 0
16 114 -539 0
-16 114 539 0
16 -114 539 0
-16 -114 -539 0
539 212 -310 0
-539 212 310 0
539 -212 310 0
-539 -212 -310 0
212 -540 0
539 -540 0
-212 -539 540 0
114 -541 0
16 -541 0
-114 -16 541 0
-540 409 0
-541 409 0
540 541 -409 0
17 115 -542 0
-17 115 542 0
17 -115 542 0
-17 -115 -542 0
542 213 -311 0
-542 213 311 0
542 -213 311 0
-542 -213 -311 0
213 -543 0
542 -543 0
-213 -542 543 0
115 -544 0
17 -544 0
-115 -17 544 0
-543 410 0
-544 410 0
543 544 -410 0
18 116 -545 0
-18 116 545 0
18 -116 545 0
-18 -116 -545 0
545 214 -312 0
-545 214 312 0
545 -214 312 0
-545 -214 -312 0
214 -546 0
545 -546 0
-214 -545 546 0
116 -547 0
18 -547 0
-116 -18 547 0
-546 411 0
-547 411 0
546 547 -411 0
19 117 -548 0
-19 117 548 0
19 -117 548 0
-19 -117 -548 0
548 215 -313 0
-548 215 313 0
548 -215 313 0
-548 -215 -313 0
215 -549 0
548 -549 0
-215 -548 549 0
117 -550 0
19 -550 0
-117 -19 550 0
-549 412 0
-550 412 0
549 550 -412 0
20 118 -551 0
-20 118 551 0
20 -118 551 0
-20 -118 -551 0
551 216 -314 0
-551 216 314 0
551 -216 314 0
-551 -216 -314 0
216 -552 0
551 -552 0
-216 -551 552 0
118 -553 0
20 -553 0
-118 -20 553 0
-552 413 0
-553 413 0
552 553 -413 0
21 119 -554 0
-21 119 554 0
21 -119 554 0
-21 -119 -554 0
554 217 -315 0
-554 217 315 0
554 -217 315 0
-554 -217 -315 0
217 -555 0
554 -555 0
-217 -554 555 0
119 -556 0
21 -556 0
-119 -21 556 0
-555 414 0
-556 414 0
555 556 -414 0
22 120 -557 0
-22 120 557 0
22 -120 557 0
-22 -120 -557 0
557 218 -316 0
-557 218 316 0
557 -218 316 0
-557 -218 -316 0
218 -558 0
557 -558 0
-218 -557 558 0
120 -559 0
22 -559 0
-120 -22 559 0
-558 415 0
-559 415 0
558 559 -415 0
23 121 -560 0
-23 121 560 0
23 -121 560 0
-23 -121 -560 0
560 219 -317 0
-560 219 317 0
560 -219 317 0
-560 -219 -317 0
219 -561 0
560 -561 0
-219 -560 561 0
121 -562 0
23 -562 0
-121 -23 562 0
-561 416 0
-562 416 0
561 562 -416 0
24 122 -563 0
-24 122 563 0
24 -122 563 0
-24 -122 -563 0
563 220 -318 0
-563 220 318 0
563 -220 318 0
-563 -220 -318 0
220 -564 0
563 -564 0
-220 -563 564 0
122 -565 0
24 -565 0
-122 -24 565 0
-564 417 0
-565 417 0
564 565 -417 0
25 123 -566 0
-25 123 566 0
25 -123 566 0
-25 -123 -566 0
566 221 -319 0
-566 221 319 0
566 -221 319 0
-566 -221 -319 0
221 -567 0
566 -567 0
-221 -566 567 0
123 -568 0
25 -568 0
-123 -25 568 0
-567 418 0
-568 418 0
567 568 -418 0
26 124 -569 0
-26 124 569 0
26 -124 569 0
-26 -124 -569 0
569 222 -320 0
-569 222 320 0
569 -222 320 0
-569 -222 -320 0
222 -570 0
569 -570 0
-222 -569 570 0
124 -571 0
26 -571 0
-124 -26 571 0
-570 419 0
-571 419 0
570 571 -419 0
27 125 -572 0
-27 125 572 0
27 -125 572 0
-27 -125 -572 0
572 223 -321 0
-572 223 321 0
572 -223 321 0
-572 -223 -321 0
223 -573 0
572 -573 0
-223 -572 573 0
125 -574 0
27 -574 0
-125 -27 574 0
-573 420 0
-574 420 0
573 574 -420 0
28 126 -575 0
-28 126 575 0
28 -126 575 0
-28 -126 -575 0
575 224 -322 0
-575 224 322 0
575 -224 322 0
-575 -224 -322 0
224 -576 0
575 -576 0
-224 -575 576 0
126 -577 0
28 -577 0
-126 -28 577 0
-576 421 0
-577 421 0
576 577 -421 0
29 127 -578 0
-29 127 578 0
29 -127 578 0
-29 -127 -578 0
578 225 -323 0
-578 225 323 0
578 -225 323 0
-578 -225 -323 0
225 -579 0
578 -579 0
-225 -578 579 0
127 -580 0
29 -580 0
-127 -29 580 0
-579 422 0
-580 422 0
579 580 -422 0
30 128 -581 0
-30 128 581 0
30 -128 581 0
-30 -128 -581 0
581 226 -324 0
-581 226 324 0
581 -226 324 0
-581 -226 -324 0
226 -582 0
581 -582 0
-226 -581 582 0
128 -583 0
30 -583 0
-128 -30 583 0
-582 423 0
-583 423 0
582 583 -423 0
31 129 -584 0
-31 129 584 0
31 -129 584 0
-31 -129 -584 0
584 227 -325 0
-584 227 325 0
584 -227 325 0
-584 -227 -325 0
227 -585 0
584 -585 0
-227 -584 585 0
129 -586 0
31 -586 0
-129 -31 586 0
-585 424 0
-586 424 0
585 586 -424 0
32 130 -587 0
-32 130 587 0
32 -130 587 0
-32 -130 -587 0
587 228 -326 0
-587 228 326 0
587 -228 326 0
-587 -228 -326 0
228 -588 0
587 -588 0
-228 -587 588 0
130 -589 0
32 -589 0
-130 -32 589 0
-588 425 0
-589 425 0
588 589 -425 0
33 131 -590 0
-33 131 590 0
33 -131 590 0
-33 -131 -590 0
590 229 -327 0
-590 229 327 0
590 -229 327 0
-590 -229 -327 0
229 -591 0
590 -591 0
-229 -590 591 0
131 -592 0
33 -592 0
-131 -33 592 0
-591 426 0
-592 426 0
591 592 -426 0
34 132 -593 0
-34 132 593 0
34 -132 593 0
-34 -132 -593 0
593 230 -328 0
-593 230 328 0
593 -230 328 0
-593 -230 -328 0
230 -594 0
593 -594 0
-230 -593 594 0
132 -595 0
34 -595 0
-132 -34 595 0
-594 427 0
-595 427 0
594 595 -427 0
35 133 -596 0
-35 133 596 0
35 -133 596 0
-35 -133 -596 0
596 231 -329 0
-596 231 329 0
596 -231 329 0
-596 -231 -329 0
231 -597 0
596 -597 0
-231 -596 597 0
133 -598 0
35 -598 0
-133 -35 598 0
-597 428 0
-598 428 0
597 598 -428 0
36 134 -599 0
-36 134 599 0
36 -134 599 0
-36 -134 -599 0
599 232 -330 0
-599 232 330 0
599 -232 330 0
-599 -232 -330 0
232 -600 0
599 -600 0
-232 -599 600 0
134 -601 0
36 -601 0
-134 -36 601 0
-600 429 0
-601 429 0
600 601 -429 0
37 135 -602 0
-37 135 602 0
37 -135 602 0
-37 -135 -602 0
602 233 -331 0
-602 233 331 0
602 -233 331 0
-602 -233 -331 0
233 -603 0
602 -603 0
-233 -602 603 0
135 -604 0
37 -604 0
-135 -37 604 0
-603 430 0
-604 430 0
603 604 -430 0
38 136 -605 0
-38 136 605 0
38 -136 605 0
-38 -136 -605 0
605 234 -332 0
-605 234 332 0
605 -234 332 0
-605 -234 -332 0
234 -606 0
605 -606 0
-234 -605 606 0
136 -607 0
38 -607 0
-136 -38 607 0
-606 431 0
-607 431 0
606 607 -431 0
39 137 -608 0
-39 137 608 0
39 -137 608 0
-39 -137 -608 0
608 235 -333 0
-608 235 333 0
608 -235 333 0
-608 -235 -333 0
235 -609 0
608 -609 0
-235 -608 609 0
137 -610 0
39 -610 0
-137 -39 610 0
-609 432 0
-610 432 0
609 610 -432 0
40 138 -611 0
-40 138 611 0
40 -138 611 0
-40 -138 -611 0
611 236 -334 0
-611 236 334 0
611 -236 334 0
-611 -236 -334 0
236 -612 0
611 -612 0
-236 -611 612 0
138 -613 0
40 -613 0
-138 -40 613 0
-612 433 0
-613 433 0
612 613 -433 0
41 139 -614 0
-41 139 614 0
41 -139 614 0
-41 -139 -614 0
614 237 -335 0
-614 237 335 0
614 -237 335 0
-614 -237 -335 0
237 -615 0
614 -615 0
-237 -614 615 0
139 -616 0
41 -616 0
-139 -41 616 0
-615 434 0
-616 434 0
615 616 -434 0
42 140 -617 0
-42 140 617 0
42 -140 617 0
-42 -140 -617 0
617 238 -336 0
-617 238 336 0
617 -238 336 0
-617 -238 -336 0
238 -618 0
617 -618 0
-238 -617 618 0
140 -619 0
42 -619 0
-140 -42 619 0
-618 435 0
-619 435 0
618 619 -435 0
43 141 -620 0
-43 141 620 0
43 -141 620 0
-43 -141 -620 0
620 239 -337 0
-620 239 337 0
620 -239 337 0
-620 -239 -337 0
239 -621 0
620 -621 0
-239 -620 621 0
141 -622 0
43 -622 0
-141 -43 622 0
-621 436 0
-622 436 0
621 622 -436 0
44 142 -623 0
-44 142 623 0
44 -142 623 0
-44 -142 -623 0
623 240 -338 0
-623 240 338 0
623 -240 338 0
-623 -240 -338 0
240 -624 0
623 -624 0
-240 -623 624 0
142 -625 0
44 -625 0
-142 -44 625 0
-624 437 0
-625 437 0
624 625 -437 0
45 143 -626 0
-45 143 626 0
45 -143 626 0
-45 -143 -626 0
626 241 -339 0
-626 241 339 0
626 -241 339 0
-626 -241 -339 0
241 -627 0
626 -627 0
-241 -626 627 0
143 -628 0
45 -628 0
-143 -45 628 0
-627 438 0
-628 438 0
627 628 -438 0
46 144 -629 0
-46 144 629 0
46 -144 629 0
-46 -144 -629 0
629 242 -340 0
-629 242 340 0
629 -242 340 0
-629 -242 -340 0
242 -630 0
629 -630 0
-242 -629 630 0
144 -631 0
46 -631 0
-144 -46 631 0
-630 439 0
-631 439 0
630 631 -439 0
47 145 -632 0
-47 145 632 0
47 -145 632 0
-47 -145 -632 0
632 243 -341 0
-632 243 341 0
632 -243 341 0
-632 -243 -341 0
243 -633 0
632 -633 0
-243 -632 633 0
145 -634 0
47 -634 0
-145 -47 634 0
-633 440 0
-634 440 0
633 634 -440 0
48 146 -635 0
-48 146 635 0
48 -146 635 0
-48 -146 -635 0
635 244 -342 0
-635 244 342 0
635 -244 342 0
-635 -244 -342 0
244 -636 0
635 -636 0
-244 -635 636 0
146 -637 0
48 -637 0
-146 -48 637 0
-636 441 0
-637 441 0
636 637 -441 0
49 147 -638 0
-49 147 638 0
49 -147 638 0
-49 -147 -638 0
638 245 -343 0
-638 245 343 0
638 -245 343 0
-638 -245 -343 0
245 -639 0
638 -639 0
-245 -638 639 0
147 -640 0
49 -640 0
-147 -49 640 0
-639 442 0
-640 442 0
639 640 -442 0
50 148 -641 0
-50 148 641 0
50 -148 641 0
-50 -148 -641 0
641 246 -344 0
-641 246 344 0
641 -246 344 0
-641 -246 -344 0
246 -642 0
641 -642 0
-246 -641 642 0
148 -643 0
50 -643 0
-148 -50 643 0
-642 443 0
-643 443 0
642 643 -443 0
51 149 -644 0
-51 149 644 0
51 -149 644 0
-51 -149 -644 0
644 247 -345 0
-644 247 345 0
644 -247 345 0
-644 -247 -345 0
247 -645 0
644 -645 0
-247 -644 645 0
149 -646 0
51 -646 0
-149 -51 646 0
-645 444 0
-646 444 0
645 646 -444 0
52 150 -647 0
-52 150 647 0
52 -150 647 0
-52 -150 -647 0
647 248 -346 0
-647 248 346 0
647 -248 346 0
-647 -248 -346 0
248 -648 0
647 -648 0
-248 -647 648 0
150 -649 0
52 -649 0
-150 -52 649 0
-648 445 0
-649 445 0
648 649 -445 0
53 151 -650 0
-53 151 650 0
53 -151 650 0
-53 -151 -650 0
650 249 -347 0
-650 249 347 0
650 -249 347 0
-650 -249 -347 0
249 -651 0
650 -651 0
-249 -650 651 0
151 -652 0
53 -652 0
-151 -53 652 0
-651 446 0
-652 446 0
651 652 -446 0
54 152 -653 0
-54 152 653 0
54 -152 653 0
-54 -152 -653 0
653 250 -348 0
-653 250 348 0
653 -250 348 0
-653 -250 -348 0
250 -654 0
653 -654 0
-250 -653 654 0
152 -655 0
54 -655 0
-152 -54 655 0
-654 447 0
-655 447 0
654 655 -447 0
55 153 -656 0
-55 153 656 0
55 -153 656 0
-55 -153 -656 0
656 251 -349 0
-656 251 349 0
656 -251 349 0
-656 -251 -349 0
251 -657 0
656 -657 0
-251 -656 657 0
153 -658 0
55 -658 0
-153 -55 658 0
-657 448 0
-658 448 0
657 658 -448 0
56 154 -659 0
-56 154 659 0
56 -154 659 0
-56 -154 -659 0
659 252 -350 0
-659 252 350 0
659 -252 350 0
-659 -252 -350 0
252 -660 0
659 -660 0
-252 -659 660 0
154 -661 0
56 -661 0
-154 -56 661 0
-660 449 0
-661 449 0
660 661 -449 0
57 155 -662 0
-57 155 662 0
57 -155 662 0
-57 -155 -662 0
662 253 -351 0
-662 253 351 0
662 -253 351 0
-662 -253 -351 0
253 -663 0
662 -663 0
-253 -662 663 0
155 -664 0
57 -664 0
-155 -57 664 0
-663 450 0
-664 450 0
663 664 -450 0
58 156 -665 0
-58 156 665 0
58 -156 665 0
-58 -156 -665 0
665 254 -352 0
-665 254 352 0
665 -254 352 0
-665 -254 -352 0
254 -666 0
665 -666 0
-254 -665 666 0
156 -667 0
58 -667 0
-156 -58 667 0
-666 451 0
-667 451 0
666 667 -451 0
59 157 -668 0
-59 157 668 0
59 -157 668 0
-59 -157 -668 0
668 255 -353 0
-668 255 353 0
668 -255 353 0
-668 -255 -353 0
255 -669 0
668 -669 0
-255 -668 669 0
157 -670 0
59 -670 0
-157 -59 670 0
-669 452 0
-670 452 0
669 670 -452 0
60 158 -671 0
-60 158 671 0
60 -158 671 0
-60 -158 -671 0
671 256 -354 0
-671 256 354 0
671 -256 354 0
-671 -256 -354 0
256 -672 0
671 -672 0
-256 -671 672 0
158 -673 0
60 -673 0
-158 -60 673 0
-672 453 0
-673 453 0
672 673 -453 0
61 159 -674 0
-61 159 674 0
61 -159 674 0
-61 -159 -674 0
674 257 -355 0
-674 257 355 0
674 -257 355 0
-674 -257 -355 0
257 -675 0
674 -675 0
-257 -674 675 0
159 -676 0
61 -676 0
-159 -61 676 0
-675 454 0
-676 454 0
675 676 -454 0
62 160 -677 0
-62 160 677 0
62 -160 677 0
-62 -160 -677 0
677 258 -356 0
-677 258 356 0
677 -258 356 0
-677 -258 -356 0
258 -678 0
677 -678 0
-258 -677 678 0
160 -679 0
62 -679 0
-160 -62 679 0
-678 455 0
-679 455 0
678 679 -455 0
63 161 -680 0
-63 161 680 0
63 -161 680 0
-63 -161 -680 0
680 259 -357 0
-680 259 357 0
680 -259 357 0
-680 -259 -357 0
259 -681 0
680 -681 0
-259 -680 681 0
161 -682 0
63 -682 0
-161 -63 682 0
-681 456 0
-682 456 0
681 682 -456 0
64 162 -683 0
-64 162 683 0
64 -162 683 0
-64 -162 -683 0
683 260 -358 0
-683 260 358 0
683 -260 358 0
-683 -260 -358 0
260 -684 0
683 -684 0
-260 -683 684 0
162 -685 0
64 -685 0
-162 -64 685 0
-684 457 0
-685 457 0
684 685 -457 0
65 163 -686 0
-65 163 686 0
65 -163 686 0
-65 -163 -686 0
686 261 -359 0
-686 261 359 0
686 -261 359 0
-686 -261 -359 0
261 -687 0
686 -687 0
-261 -686 687 0
163 -688 0
65 -688 0
-163 -65 688 0
-687 458 0
-688 458 0
687 688 -458 0
66 164 -689 0
-66 164 689 0
66 -164 689 0
-66 -164 -689 0
689 262 -360 0
-689 262 360 0
689 -262 360 0
-689 -262 -360 0
262 -690 0
689 -690 0
-262 -689 690 0
164 -691 0
66 -691 0
-164 -66 691 0
-690 459 0
-691 459 0
690 691 -459 0
67 165 -692 0
-67 165 692 0
67 -165 692 0
-67 -165 -692 0
692 263 -361 0
-692 263 361 0
692 -263 361 0
-692 -263 -361 0
263 -693 0
692 -693 0
-263 -692 693 0
165 -694 0
67 -694 0
-165 -67 694 0
-693 460 0
-694 460 0
693 694 -460 0
68 166 -695 0
-68 166 695 0
68 -166 695 0
-68 -166 -695 0
695 264 -362 0
-695 264 362 0
695 -264 362 0
-695 -264 -362 0
264 -696 0
695 -696 0
-264 -695 696 0
166 -697 0
68 -697 0
-166 -68 697 0
-696 461 0
-697 461 0
696 697 -461 0
69 167 -698 0
-69 167 698 0
69 -167 698 0
-69 -167 -698 0
698 265 -363 0
-698 265 363 0
698 -265 363 0
-698 -265 -363 0
265 -699 0
698 -699 0
-265 -698 699 0
167 -700 0
69 -700 0
-167 -69 700 0
-699 462 0
-700 462 0
699 700 -462 0
70 168 -701 0
-70 168 701 0
70 -168 701 0
-70 -168 -701 0
701 266 -364 0
-701 266 364 0
701 -266 364 0
-701 -266 -364 0
266 -702 0
701 -702 0
-266 -701 702 0
168 -703 0
70 -703 0
-168 -70 703 0
-702 463 0
-703 463 0
702 703 -463 0
71 169 -704 0
-71 169 704 0
71 -169 704 0
-71 -169 -704 0
704 267 -365 0
-704 267 365 0
704 -267 365 0
-704 -267 -365 0
267 -705 0
704 -705 0
-267 -704 705 0
169 -706 0
71 -706 0
-169 -71 706 0
-705 464 0
-706 464 0
705 706 -464 0
72 170 -707 0
-72 170 707 0
72 -170 707 0
-72 -170 -707 0
707 268 -366 0
-707 268 366 0
707 -268 366 0
-707 -268 -366 0
268 -708 0
707 -708 0
-268 -707 708 0
170 -709 0
72 -709 0
-170 -72 709 0
-708 465 0
-709 465 0
708 709 -465 0
73 171 -710 0
-73 171 710 0
73 -171 710 0
-73 -171 -710 0
710 269 -367 0
-710 269 367 0
710 -269 367 0
-710 -269 -367 0
269 -711 0
710 -711 0
-269 -710 711 0
171 -712 0
73 -712 0
-171 -73 712 0
-711 466 0
-712 466 0
711 712 -466 0
74 172 -713 0
-74 172 713 0
74 -172 713 0
-74 -172 -713 0
713 270 -368 0
-713 270 368 0
713 -270 368 0
-713 -270 -368 0
270 -714 0
713 -714 0
-270 -713 714 0
172 -715 0
74 -715 0
-172 -74 715 0
-714 467 0
-715 467 0
714 715 -467 0
75 173 -716 0
-75 173 716 0
75 -173 716 0
-75 -173 -716 0
716 271 -369 0
-716 271 369 0
716 -271 369 0
-716 -271 -369 0
271 -717 0
716 -717 0
-271 -716 717 0
173 -718 0
75 -718 0
-173 -75 718 0
-717 468 0
-718 468 0
717 718 -468 0
76 174 -719 0
-76 174 719 0
76 -174 719 0
-76 -174 -719 0
719 272 -370 0
-719 272 370 0
719 -272 370 0
-719 -272 -370 0
272 -720 0
719 -720 0
-272 -719 720 0
174 -721 0
76 -721 0
-174 -76 721 0
-720 469 0
-721 469 0
720 721 -469 0
77 175 -722 0
-77 175 722 0
77 -175 722 0
-77 -175 -722 0
722 273 -371 0
-722 273 371 0
722 -273 371 0
-722 -273 -371 0
273 -723 0
722 -723 0
-273 -722 723 0
175 -724 0
77 -724 0
-175 -77 724 0
-723 470 0
-724 470 0
723 724 -470 0
78 176 -725 0
-78 176 725 0
78 -176 725 0
-78 -176 -725 0
725 274 -372 0
-725 274 372 0
725 -274 372 0
-725 -274 -372 0
274 -726 0
725 -726 0
-274 -725 726 0
176 -727 0
78 -727 0
-176 -78 727 0
-726 471 0
-727 471 0
726 727 -471 0
79 177 -728 0
-79 177 728 0
79 -177 728 0
-79 -177 -728 0
728 275 -373 0
-728 275 373 0
728 -275 373 0
-728 -275 -373 0
275 -729 0
728 -729 0
-275 -728 729 0
177 -730 0
79 -730 0
-177 -79 730 0
-729 472 0
-730 472 0
729 730 -472 0
80 178 -731 0
-80 178 731 0
80 -178 731 0
-80 -178 -731 0
731 276 -374 0
-731 276 374 0
731 -276 374 0
-731 -276 -374 0
276 -732 0
731 -732 0
-276 -731 732 0
178 -733 0
80 -733 0
-178 -80 733 0
-732 473 0
-733 473 0
732 733 -473 0
81 179 -734 0
-81 179 734 0
81 -179 734 0
-81 -179 -734 0
734 277 -375 0
-734 277 375 0
734 -277 375 0
-734 -277 -375 0
277 -735 0
734 -735 0
-277 -734 735 0
179 -736 0
81 -736 0
-179 -81 736 0
-735 474 0
-736 474 0
735 736 -474 0
82 180 -737 0
-82 180 737 0
82 -180 737 0
-82 -180 -737 0
737 278 -376 0
-737 278 376 0
737 -278 376 0
-737 -278 -376 0
278 -738 0
737 -738 0
-278 -737 738 0
180 -739 0
82 -739 0
-180 -82 739 0
-738 475 0
-739 475 0
738 739 -475 0
83 181 -740 0
-83 181 740 0
83 -181 740 0
-83 -181 -740 0
740 279 -377 0
-740 279 377 0
740 -279 377 0
-740 -279 -377 0
279 -741 0
740 -741 0
-279 -740 741 0
181 -742 0
83 -742 0
-181 -83 742 0
-741 476 0
-742 476 0
741 742 -476 0
84 182 -743 0
-84 182 743 0
84 -182 743 0
-84 -182 -743 0
743 280 -378 0
-743 280 378 0
743 -280 378 0
-743 -280 -378 0
280 -744 0
743 -744 0
-280 -743 744 0
182 -745 0
84 -745 0
-182 -84 745 0
-744 477 0
-745 477 0
744 745 -477 0
85 183 -746 0
-85 183 746 0
85 -183 746 0
-85 -183 -746 0
746 281 -379 0
-746 281 379 0
746 -281 379 0
-746 -281 -379 0
281 -747 0
746 -747 0
-281 -746 747 0
183 -748 0
85 -748 0
-183 -85 748 0
-747 478 0
-748 478 0
747 748 -478 0
86 184 -749 0
-86 184 749 0
86 -184 749 0
-86 -184 -749 0
749 282 -380 0
-749 282 380 0
749 -282 380 0
-749 -282 -380 0
282 -750 0
749 -750 0
-282 -749 750 0
184 -751 0
86 -751 0
-184 -86 751 0
-750 479 0
-751 479 0
750 751 -479 0
87 185 -752 0
-87 185 752 0
87 -185 752 0
-87 -185 -752 0
752 283 -381 0
-752 283 381 0
752 -283 381 0
-752 -283 -381 0
283 -753 0
752 -753 0
-283 -752 753 0
185 -754 0
87 -754 0
-185 -87 754 0
-753 480 0
-754 480 0
753 754 -480 0
88 186 -755 0
-88 186 755 0
88 -186 755 0
-88 -186 -755 0
755 284 -382 0
-755 284 382 0
755 -284 382 0
-755 -284 -382 0
284 -756 0
755 -756 0
-284 -755 756 0
186 -757 0
88 -757 0
-186 -88 757 0
-756 481 0
-757 481 0
756 757 -481 0
89 187 -758 0
-89 187 758 0
89 -187 758 0
-89 -187 -758 0
758 285 -383 0
-758 285 383 0
758 -285 383 0
-758 -285 -383 0
285 -759 0
758 -759 0
-285 -758 759 0
187 -760 0
89 -760 0
-187 -89 760 0
-759 482 0
-760 482 0
759 760 -482 0
90 188 -761 0
-90 188 761 0
90 -188 761 0
-90 -188 -761 0
761 286 -384 0
-761 286 384 0
761 -286 384 0
-761 -286 -384 0
286 -762 0
761 -762 0
-286 -761 762 0
188 -763 0
90 -763 0
-188 -90 763 0
-762 483 0
-763 483 0
762 763 -483 0
91 189 -764 0
-91 189 764 0
91 -189 764 0
-91 -189 -764 0
764 287 -385 0
-764 287 385 0
764 -287 385 0
-764 -287 -385 0
287 -765 0
764 -765 0
-287 -764 765 0
189 -766 0
91 -766 0
-189 -91 766 0
-765 484 0
-766 484 0
765 766 -484 0
92 190 -767 0
-92 190 767 0
92 -190 767 0
-92 -190 -767 0
767 288 -386 0
-767 288 386 0
767 -288 386 0
-767 -288 -386 0
288 -768 0
767 -768 0
-288 -767 768 0
190 -769 0
92 -769 0
-190 -92 769 0
-768 485 0
-769 485 0
768 769 -485 0
93 191 -770 0
-93 191 770 0
93 -191 770 0
-93 -191 -770 0
770 289 -387 0
-770 289 387 0
770 -289 387 0
-770 -289 -387 0
289 -771 0
770 -771 0
-289 -770 771 0
191 -772 0
93 -772 0
-191 -93 772 0
-771 486 0
-772 486 0
771 772 -486 0
94 192 -773 0
-94 192 773 0
94 -192 773 0
-94 -192 -773 0
773 290 -388 0
-773 290 388 0
773 -290 388 0
-773 -290 -388 0
290 -774 0
773 -774 0
-290 -773 774 0
192 -775 0
94 -775 0
-192 -94 775 0
-774 487 0
-775 487 0
774 775 -487 0
95 193 -776 0
-95 193 776 0
95 -193 776 0
-95 -193 -776 0
776 291 -389 0
-776 291 389 0
776 -291 389 0
-776 -291 -389 0
291 -777 0
776 -777 0
-291 -776 777 0
193 -778 0
95 -778 0
-193 -95 778 0
-777 488 0
-778 488 0
777 778 -488 0
96 194 -779 0
-96 194 779 0
96 -194 779 0
-96 -194 -779 0
779 292 -390 0
-779 292 390 0
779 -292 390 0
-779 -292 -390 0
292 -780 0
779 -780 0
-292 -779 780 0
194 -781 0
96 -781 0
-194 -96 781 0
-780 489 0
-781 489 0
780 781 -489 0
97 195 -782 0
-97 195 782 0
97 -195 782 0
-97 -195 -782 0
782 293 -391 0
-782 293 391 0
782 -293 391 0
-782 -293 -391 0
293 -783 0
782 -783 0
-293 -782 783 0
195 -784 0
97 -784 0
-195 -97 784 0
-783 490 0
-784 490 0
783 784 -490 0
98 196 -785 0
-98 196 785 0
98 -196 785 0
-98 -196 -785 0
785 294 -392 0
-785 294 392 0
785 -294 392 0
-785 -294 -392 0
294 -786 0
785 -786 0
-294 -785 786 0
196 -787 0
98 -787 0
-196 -98 787 0
-786 491 0
-787 491 0
786 787 -491 0
